NAME : mtspf.pid4310.gtsp.187905086.tour
COMMENT : Length = 187905086
COMMENT : Found by LKH [Keld Helsgaun] Mon Feb 10 00:44:56 2025
TYPE : TOUR
DIMENSION : 125
TOUR_SECTION
1
74
75
76
77
3
109
106
107
108
24
25
22
23
93
90
91
92
65
62
63
64
97
94
95
96
41
38
39
40
85
82
83
84
5
15
16
17
14
28
29
26
27
119
120
121
118
114
115
116
117
57
54
55
56
67
68
69
66
110
111
112
113
59
60
61
58
8
9
6
7
88
89
86
87
102
103
104
105
99
100
101
98
122
123
124
125
2
10
11
12
13
4
73
70
71
72
49
46
47
48
37
34
35
36
32
33
30
31
42
43
44
45
53
50
51
52
81
78
79
80
21
18
19
20
-1
EOF
